
Gurobi 9.5.2 (win64) logging started Mon Oct 31 22:40:32 2022

Set parameter LogFile to value "GurobiLog.txt"

Gurobi 9.5.2 (win64) logging started Mon Oct 31 22:44:13 2022

Set parameter LogFile to value "GurobiLog.txt"

Gurobi 9.5.2 (win64) logging started Sun Dec  4 23:05:50 2022

Set parameter LogFile to value "GurobiLog.txt"

Gurobi 9.5.2 (win64) logging started Sun Dec  4 23:12:49 2022

Set parameter LogFile to value "GurobiLog.txt"

Gurobi 9.5.2 (win64) logging started Sun Dec  4 23:18:23 2022

Set parameter LogFile to value "GurobiLog.txt"

Gurobi 9.5.2 (win64) logging started Tue Dec  6 21:29:12 2022

Set parameter LogFile to value "GurobiLog.txt"

Gurobi 9.5.2 (win64) logging started Tue Dec  6 21:31:02 2022

Set parameter LogFile to value "GurobiLog.txt"

Gurobi 9.5.2 (win64) logging started Tue Dec  6 21:41:40 2022

Set parameter LogFile to value "GurobiLog.txt"

Gurobi 9.5.2 (win64) logging started Tue Dec  6 21:41:57 2022

Set parameter LogFile to value "GurobiLog.txt"

Gurobi 9.5.2 (win64) logging started Tue Dec  6 21:42:23 2022

Set parameter LogFile to value "GurobiLog.txt"

Gurobi 9.5.2 (win64) logging started Tue Dec  6 21:44:07 2022

Set parameter LogFile to value "GurobiLog.txt"

Gurobi 9.5.2 (win64) logging started Tue Dec  6 21:44:31 2022

Set parameter LogFile to value "GurobiLog.txt"

Gurobi 9.5.2 (win64) logging started Wed Dec 28 20:26:42 2022

Set parameter LogFile to value "GurobiLog.txt"

Gurobi 9.5.2 (win64) logging started Mon Feb  6 11:27:10 2023

Set parameter LogFile to value "GurobiLog.txt"

Gurobi 9.5.2 (win64) logging started Mon Feb  6 15:46:14 2023

Set parameter LogFile to value "GurobiLog.txt"

Gurobi 9.5.2 (win64) logging started Mon Feb  6 15:52:48 2023

Set parameter LogFile to value "GurobiLog.txt"

Gurobi 9.5.2 (win64) logging started Mon Feb  6 15:58:09 2023

Set parameter LogFile to value "GurobiLog.txt"

Gurobi 9.5.2 (win64) logging started Mon Feb  6 16:16:16 2023

Set parameter LogFile to value "GurobiLog.txt"

Gurobi 9.5.2 (win64) logging started Mon Feb  6 16:17:51 2023

Set parameter LogFile to value "GurobiLog.txt"

Gurobi 9.5.2 (win64) logging started Mon Feb  6 16:18:32 2023

Set parameter LogFile to value "GurobiLog.txt"

Gurobi 9.5.2 (win64) logging started Mon Feb  6 16:18:58 2023

Set parameter LogFile to value "GurobiLog.txt"

Gurobi 9.5.2 (win64) logging started Mon Feb  6 16:20:33 2023

Set parameter LogFile to value "GurobiLog.txt"

Gurobi 9.5.2 (win64) logging started Mon Feb  6 16:21:37 2023

Set parameter LogFile to value "GurobiLog.txt"

Gurobi 9.5.2 (win64) logging started Mon Feb  6 16:24:04 2023

Set parameter LogFile to value "GurobiLog.txt"

Gurobi 9.5.2 (win64) logging started Mon Feb  6 16:24:19 2023

Set parameter LogFile to value "GurobiLog.txt"

Gurobi 9.5.2 (win64) logging started Mon Feb  6 16:27:17 2023

Set parameter LogFile to value "GurobiLog.txt"

Gurobi 9.5.2 (win64) logging started Mon Feb  6 16:31:28 2023

Set parameter LogFile to value "GurobiLog.txt"

Gurobi 9.5.2 (win64) logging started Mon Feb  6 16:31:52 2023

Set parameter LogFile to value "GurobiLog.txt"

Gurobi 9.5.2 (win64) logging started Mon Feb  6 16:32:19 2023

Set parameter LogFile to value "GurobiLog.txt"

Gurobi 9.5.2 (win64) logging started Mon Feb  6 16:32:42 2023

Set parameter LogFile to value "GurobiLog.txt"

Gurobi 9.5.2 (win64) logging started Mon Feb  6 16:36:12 2023

Set parameter LogFile to value "GurobiLog.txt"

Gurobi 9.5.2 (win64) logging started Mon Feb  6 16:41:24 2023

Set parameter LogFile to value "GurobiLog.txt"

Gurobi 9.5.2 (win64) logging started Mon Feb  6 16:42:49 2023

Set parameter LogFile to value "GurobiLog.txt"

Gurobi 9.5.2 (win64) logging started Mon Feb  6 16:43:18 2023

Set parameter LogFile to value "GurobiLog.txt"

Gurobi 9.5.2 (win64) logging started Mon Feb  6 16:46:18 2023

Set parameter LogFile to value "GurobiLog.txt"

Gurobi 9.5.2 (win64) logging started Mon Feb  6 16:46:48 2023

Set parameter LogFile to value "GurobiLog.txt"

Gurobi 9.5.2 (win64) logging started Mon Feb  6 16:47:25 2023

Set parameter LogFile to value "GurobiLog.txt"

Gurobi 9.5.2 (win64) logging started Mon Feb  6 16:49:58 2023

Set parameter LogFile to value "GurobiLog.txt"

Gurobi 9.5.2 (win64) logging started Mon Feb  6 16:53:43 2023

Set parameter LogFile to value "GurobiLog.txt"

Gurobi 9.5.2 (win64) logging started Mon Feb  6 16:54:10 2023

Set parameter LogFile to value "GurobiLog.txt"

Gurobi 9.5.2 (win64) logging started Mon Feb  6 16:54:19 2023

Set parameter LogFile to value "GurobiLog.txt"

Gurobi 9.5.2 (win64) logging started Mon Feb  6 16:56:22 2023

Set parameter LogFile to value "GurobiLog.txt"

Gurobi 9.5.2 (win64) logging started Mon Feb  6 16:56:30 2023

Set parameter LogFile to value "GurobiLog.txt"

Gurobi 9.5.2 (win64) logging started Mon Feb  6 17:01:57 2023

Set parameter LogFile to value "GurobiLog.txt"

Gurobi 9.5.2 (win64) logging started Mon Feb  6 17:02:58 2023

Set parameter LogFile to value "GurobiLog.txt"

Gurobi 9.5.2 (win64) logging started Mon Feb  6 17:11:56 2023

Set parameter LogFile to value "GurobiLog.txt"

Gurobi 9.5.2 (win64) logging started Mon Feb  6 17:12:39 2023

Set parameter LogFile to value "GurobiLog.txt"

Gurobi 9.5.2 (win64) logging started Mon Feb  6 17:24:14 2023

Set parameter LogFile to value "GurobiLog.txt"

Gurobi 9.5.2 (win64) logging started Mon Feb  6 17:24:24 2023

Set parameter LogFile to value "GurobiLog.txt"

Gurobi 9.5.2 (win64) logging started Mon Feb  6 17:24:36 2023

Set parameter LogFile to value "GurobiLog.txt"

Gurobi 9.5.2 (win64) logging started Mon Feb  6 17:31:00 2023

Set parameter LogFile to value "GurobiLog.txt"

Gurobi 9.5.2 (win64) logging started Mon Feb  6 17:32:25 2023

Set parameter LogFile to value "GurobiLog.txt"

Gurobi 9.5.2 (win64) logging started Mon Feb  6 17:32:35 2023

Set parameter LogFile to value "GurobiLog.txt"

Gurobi 9.5.2 (win64) logging started Mon Feb  6 17:33:12 2023

Set parameter LogFile to value "GurobiLog.txt"

Gurobi 9.5.2 (win64) logging started Mon Feb  6 17:45:26 2023

Set parameter LogFile to value "GurobiLog.txt"

Gurobi 9.5.2 (win64) logging started Mon Feb  6 17:46:51 2023

Set parameter LogFile to value "GurobiLog.txt"

Gurobi 9.5.2 (win64) logging started Mon Feb  6 18:27:17 2023

Set parameter LogFile to value "GurobiLog.txt"

Gurobi 9.5.2 (win64) logging started Mon Feb  6 18:28:56 2023

Set parameter LogFile to value "GurobiLog.txt"

Gurobi 9.5.2 (win64) logging started Mon Feb  6 18:31:18 2023

Set parameter LogFile to value "GurobiLog.txt"

Gurobi 9.5.2 (win64) logging started Mon Feb  6 18:31:58 2023

Set parameter LogFile to value "GurobiLog.txt"
